WARNING: for repeatability, setting FPU to use double precision
============================[ Problem Statistics ]=============================
|                                                                             |
|  Number of variables:          2550                                         |
|  Number of clauses:           59683                                         |
|  Parse time:                   0.01 s                                       |
|                                                                             |
c ============================[ Search Statistics ]==============================
c | Conflicts |          ORIGINAL         |          LEARNT          | Progress |
c |           |    Vars  Clauses Literals |    Limit  Clauses Lit/Cl |          |
c ===============================================================================
c Switched to VSIDS.
c Switched to LRB.
c Switched to VSIDS.
c Switched to LRB.
c Switched to VSIDS.
c Switched to LRB.
c Switched to VSIDS.
c Switched to LRB.
c Switched to VSIDS.
c Switched to LRB.
c Switched to VSIDS.
c Switched to LRB.
c Switched to VSIDS.
c Switched to LRB.
c Switched to VSIDS.
c Switched to LRB.
c Switched to VSIDS.
c Switched to LRB.
c Switched to VSIDS.
c Switched to LRB.
c Switched to VSIDS.
c Switched to LRB.
c Switched to VSIDS.
c Switched to LRB.
c Switched to VSIDS.
c Switched to LRB.
c Switched to VSIDS.
c Switched to LRB.
c ===============================================================================
restarts                  : 82627
conflicts                 : 15426973       (4360 /sec)
decisions                 : 45600029       (0.00 % random) (12888 /sec)
propagations              : 4321445722     (1221387 /sec)
conflict literals         : 2317120144     (26.28 % deleted)

conflicts w/ DIP found    : 4878024        (31.62 % of conflicts)
conflicts w/ dangerous DIP: 0              (0.00 % of conflicts)
conflicts w/ DIP-learning : 121885         (0.79 % of conflicts)
decisions on ext vars     : 3168777        (6.95 % of decisions)
total ext vars            : 3508        
tried delete ext vars     : 2           
deleted ext vars          : 2           
max ext vars              : 3506        

Memory used               : 422.00 MB
CPU time                  : 3538.15 s
DIP computation time      : 84.3339 s (2.38 % of total time)
ER_sel time               : 23.4269 s
ER_add time               : 0.018143 s
ER_delC time              : 0 s
ER_delV time              : 0.000101 s
ER_sub time               : 27.3171 s
ER_stat time              : 0 s

INDETERMINATE
